# Solution for model GasLib-40
# Objective value = 1.3141987327460480e+01
loadshed[innode_1] 0
loadshed[innode_2] 0
loadshed[innode_3] 0
loadshed[innode_4] 0
loadshed[innode_5] 0
loadshed[innode_6] 0
loadshed[innode_7] 0
loadshed[innode_8] 0
loadshed[source_1] -2.0543362157983935e-01
loadshed[source_2] -3.5982902203268718e-02
loadshed[source_3] 0.324546160293264
loadshed[sink_1] 0
loadshed[sink_2] 0
loadshed[sink_3] 0
loadshed[sink_4] 0
loadshed[sink_5] 0
loadshed[sink_6] 0
loadshed[sink_7] 0
loadshed[sink_8] 0
loadshed[sink_9] 0
loadshed[sink_10] 0
loadshed[sink_11] 0
loadshed[sink_12] 8.0358648626509943e-01
loadshed[sink_13] 0
loadshed[sink_14] 0
loadshed[sink_15] 0
loadshed[sink_16] 0
loadshed[sink_17] 0
loadshed[sink_18] 0
loadshed[sink_19] 0
loadshed[sink_20] 0
loadshed[sink_21] 0
loadshed[sink_22] 0
loadshed[sink_23] 0
loadshed[sink_24] 0
loadshed[sink_25] 0
loadshed[sink_26] 0
loadshed[sink_27] 0
loadshed[sink_28] 0
loadshed[sink_29] 0
flow[source_1,sink_3] 1.9056733607822946e+02
flow[innode_1,sink_16] 1.6354166666666970e+01
flow[innode_6,sink_13] 7.6964815213619229e+00
flow[sink_13,sink_14] -8.6576851453047450e+00
flow[sink_14,sink_10] -2.5011851811971383e+01
flow[sink_25,sink_26] 1.8244991071696580e+02
flow[sink_26,sink_9] 1.5039967933920690e+02
flow[sink_9,sink_18] 1.3404551267254024e+02
flow[sink_26,sink_4] 1.5696064711092674e+01
flow[sink_4,sink_20] 0
flow[sink_18,sink_6] 1.1769134600587358e+02
flow[sink_25,innode_8] -1.5785900274489308e+02
flow[sink_6,sink_7] 6.8628846005873129e+01
flow[sink_6,sink_22] 3.2708333333333641e+01
flow[sink_7,sink_24] 3.5920512672539523e+01
flow[sink_22,sink_1] 1.6354166666666970e+01
flow[sink_24,sink_21] 1.9566346005872855e+01
flow[sink_21,sink_12] 3.2121793392061875e+00
flow[sink_7,sink_5] 1.6354166666667368e+01
flow[sink_5,sink_17] 0
flow[sink_17,sink_4] 0.65810195557399
flow[sink_17,sink_8] -1.7012268622240658e+01
flow[sink_3,sink_23] 16.3541666666697
flow[sink_8,sink_20] -3.3366435288907326e+01
flow[sink_25,sink_20] 4.9720601955574068e+01
flow[sink_25,sink_15] -9.8362158115675214e+01
flow[sink_15,sink_29] -6.3819450469341213e+01
flow[sink_29,sink_28] 1.6354166666667879e+01
flow[sink_29,sink_2] 6.7251040979667351e+01
flow[sink_2,sink_15] 5.0896874313000680e+01
flow[sink_29,innode_7] -1.6377882478234312e+02
flow[innode_4,sink_19] 4.0878222860647931e+01
flow[sink_19,innode_3] 0
flow[innode_4,innode_5] 6.5904462284656546e+01
flow[sink_27,innode_5] -6.5904462284656546e+01
flow[sink_27,sink_19] 4.9550295617989875e+01
flow[sink_10,sink_11] 3.2708333333333641e+01
flow[sink_10,innode_2] -7.4074351811971852e+01
flow[sink_10,innode_3] 0
flow[innode_6,sink_25] -7.6964815213619229e+00
flow[sink_11,innode_1] 1.6354166666666970e+01
flow[sink_19,innode_2] 7.4074351811971852e+01
flow[source_3,innode_4] 1.0678268514530447e+02
flow[source_2,innode_7] 1.6377882478234312e+02
flow[sink_3,innode_8] 1.5785900274489308e+02
pressure[innode_1] 75.2903322956506
pressure[innode_2] 7.9357169033609651e+01
pressure[innode_3] 7.9357169033609651e+01
pressure[innode_4] 81.01325
pressure[innode_5] 8.0967917435687554e+01
pressure[innode_6] 7.4285943884226043e+01
pressure[innode_7] 81.01325
pressure[innode_8] 8.0376256194851550e+01
pressure[source_1] 81.01325
pressure[source_2] 81.01325
pressure[source_3] 81.01325
pressure[sink_1] 4.2340341705219984e+01
pressure[sink_2] 7.4929263274463139e+01
pressure[sink_3] 8.0376256194851550e+01
pressure[sink_4] 5.9440465528723507e+01
pressure[sink_5] 3.6697738819461861e+01
pressure[sink_6] 4.4441419315607355e+01
pressure[sink_7] 4.3499308846356577e+01
pressure[sink_8] 6.0107533107345631e+01
pressure[sink_9] 5.2434294839982144e+01
pressure[sink_10] 7.5442033603254146e+01
pressure[sink_11] 75.2903322956506
pressure[sink_12] 1.01325
pressure[sink_13] 7.4243514467800324e+01
pressure[sink_14] 7.4259008132839554e+01
pressure[sink_15] 7.4763096197321616e+01
pressure[sink_16] 7.4268682460832920e+01
pressure[sink_17] 5.9465616015441427e+01
pressure[sink_18] 4.7584128667151383e+01
pressure[sink_19] 7.9357169033609651e+01
pressure[sink_20] 6.2432704405759310e+01
pressure[sink_21] 2.1563192121495880e+00
pressure[sink_22] 4.3404110847574991e+01
pressure[sink_23] 8.0211538183191763e+01
pressure[sink_24] 2.3729983148610843e+00
pressure[sink_25] 7.4285943884226043e+01
pressure[sink_26] 6.1436103819320792e+01
pressure[sink_27] 8.0421032177077109e+01
pressure[sink_28] 76.3375257662641
pressure[sink_29] 7.6632808039881269e+01
interdiction[source_1,sink_3] 0
interdiction[innode_1,sink_16] 0
interdiction[innode_6,sink_13] 0
interdiction[sink_13,sink_14] 0
interdiction[sink_14,sink_10] 0
interdiction[sink_25,sink_26] 0
interdiction[sink_26,sink_9] 0
interdiction[sink_9,sink_18] 0
interdiction[sink_26,sink_4] 0
interdiction[sink_4,sink_20] 1
interdiction[sink_18,sink_6] 0
interdiction[sink_25,innode_8] 0
interdiction[sink_6,sink_7] 0
interdiction[sink_6,sink_22] 0
interdiction[sink_7,sink_24] 0
interdiction[sink_22,sink_1] 0
interdiction[sink_24,sink_21] 0
interdiction[sink_21,sink_12] 0
interdiction[sink_7,sink_5] 0
interdiction[sink_5,sink_17] 1
interdiction[sink_17,sink_4] 0
interdiction[sink_17,sink_8] 0
interdiction[sink_3,sink_23] 0
interdiction[sink_8,sink_20] 0
interdiction[sink_25,sink_20] 0
interdiction[sink_25,sink_15] 0
interdiction[sink_15,sink_29] 0
interdiction[sink_29,sink_28] 0
interdiction[sink_29,sink_2] 0
interdiction[sink_2,sink_15] 0
interdiction[sink_29,innode_7] 0
interdiction[innode_4,sink_19] 0
interdiction[sink_19,innode_3] 0
interdiction[innode_4,innode_5] 0
interdiction[sink_27,innode_5] 0
interdiction[sink_27,sink_19] 0
interdiction[sink_10,sink_11] 0
interdiction[sink_10,innode_2] 0
interdiction[sink_10,innode_3] 1
interdiction[innode_6,sink_25] 0
interdiction[sink_11,innode_1] 0
interdiction[sink_19,innode_2] 0
interdiction[source_3,innode_4] 0
interdiction[source_2,innode_7] 0
interdiction[sink_3,innode_8] 0
WCcheckFlow[source_1,sink_3] 39
WCcheckFlow[innode_1,sink_16] 1
WCcheckFlow[innode_6,sink_13] 13
WCcheckFlow[sink_13,sink_14] 12
WCcheckFlow[sink_14,sink_10] 11
WCcheckFlow[sink_25,sink_26] 15
WCcheckFlow[sink_26,sink_9] 10
WCcheckFlow[sink_9,sink_18] 9
WCcheckFlow[sink_26,sink_4] 4
WCcheckFlow[sink_4,sink_20] 0
WCcheckFlow[sink_18,sink_6] 8
WCcheckFlow[sink_25,innode_8] -36
WCcheckFlow[sink_6,sink_7] 5
WCcheckFlow[sink_6,sink_22] 2
WCcheckFlow[sink_7,sink_24] 3
WCcheckFlow[sink_22,sink_1] 1
WCcheckFlow[sink_24,sink_21] 2
WCcheckFlow[sink_21,sink_12] 1
WCcheckFlow[sink_7,sink_5] 1
WCcheckFlow[sink_5,sink_17] 0
WCcheckFlow[sink_17,sink_4] -3
WCcheckFlow[sink_17,sink_8] 2
WCcheckFlow[sink_3,sink_23] 1
WCcheckFlow[sink_8,sink_20] 1
WCcheckFlow[sink_25,sink_20] 0
WCcheckFlow[sink_25,sink_15] 6
WCcheckFlow[sink_15,sink_29] 5
WCcheckFlow[sink_29,sink_28] 1
WCcheckFlow[sink_29,sink_2] 1
WCcheckFlow[sink_2,sink_15] 0
WCcheckFlow[sink_29,innode_7] 2
WCcheckFlow[innode_4,sink_19] -4
WCcheckFlow[sink_19,innode_3] 1
WCcheckFlow[innode_4,innode_5] 2
WCcheckFlow[sink_27,innode_5] -1
WCcheckFlow[sink_27,sink_19] 0
WCcheckFlow[sink_10,sink_11] 3
WCcheckFlow[sink_10,innode_2] 7
WCcheckFlow[sink_10,innode_3] 0
WCcheckFlow[innode_6,sink_25] -14
WCcheckFlow[sink_11,innode_1] 2
WCcheckFlow[sink_19,innode_2] -6
WCcheckFlow[source_3,innode_4] -1
WCcheckFlow[source_2,innode_7] -1
WCcheckFlow[sink_3,innode_8] 37
